50
1000
694
694
690
687
649
648
637
634
626
600
598
585
573
556
551
519
519
485
470
445
411
404
401
391
389
349
340
338
326
320
303
290
273
256
244
232
220
186
183
175
173
167
162
160
159
158
144
116
107
104
